
******************************************************************************
This program contains Ipopt, a library for large-scale nonlinear optimization.
 Ipopt is released as open source code under the Eclipse Public License (EPL).
         For more information visit http://projects.coin-or.org/Ipopt
******************************************************************************

NOTE: You are using Ipopt by default with the MUMPS linear solver.
      Other linear solvers might be more efficient (see Ipopt documentation).


This is Ipopt version trunk, running with linear solver mumps.

Number of nonzeros in equality constraint Jacobian...:   139399
Number of nonzeros in inequality constraint Jacobian.:        0
Number of nonzeros in Lagrangian Hessian.............:        0

Total number of variables............................:      597
                     variables with only lower bounds:        0
                variables with lower and upper bounds:      597
                     variables with only upper bounds:        0
Total number of equality constraints.................:      401
Total number of inequality constraints...............:        1
        inequality constraints with only lower bounds:        0
   inequality constraints with lower and upper bounds:        1
        inequality constraints with only upper bounds:        0

iter    objective    inf_pr   inf_du lg(mu)  ||d||  lg(rg) alpha_du alpha_pr  ls
   0 9.9999900e+017 4.54e-001 1.00e+012   0.0 0.00e+000    -  0.00e+000 0.00e+000   0
   1 3.6845894e+016 6.99e-001 3.68e+010  -0.0 6.71e-001    -  1.00e+000 9.63e-001f  1
   2 3.6746894e+014 3.01e-002 3.67e+008  -0.6 8.51e-002    -  1.00e+000 9.90e-001f  1
   3 2.6846893e+012 8.95e-004 2.68e+006  -1.8 2.64e-002    -  1.00e+000 9.93e-001f  1
   4 6.2172489e+005 7.04e-004 5.82e+002  -3.2 2.64e-002    -  9.64e-001 1.00e+000f  1
   5 -3.9968029e+005 4.56e-002 9.40e+001  -3.2 2.06e-001    -  1.00e+000 1.00e+000h  1
   6 -5.6621374e+005 2.94e-003 3.92e+001  -3.4 2.41e-001  -4.0 1.00e+000 1.00e+000h  1
   7 -5.5511151e+005 9.84e-004 1.09e+001  -3.7 1.60e-001    -  1.00e+000 1.00e+000h  1
   8 0.0000000e+000 1.72e-005 1.85e+000  -5.6 9.32e-003    -  1.00e+000 1.00e+000h  1
   9 0.0000000e+000 2.41e-005 2.84e+000  -7.5 5.83e-003    -  1.00e+000 1.00e+000h  1
iter    objective    inf_pr   inf_du lg(mu)  ||d||  lg(rg) alpha_du alpha_pr  ls
  10 5.5511151e+003 8.62e-008 6.02e+001  -9.2 8.01e-003    -  1.00e+000 1.00e+000H  1
  11 0.0000000e+000 2.32e-006 2.99e+001 -10.8 4.82e-003    -  1.00e+000 1.00e+000h  1
  12 0.0000000e+000 5.62e-007 5.98e+000 -12.3 2.17e-003    -  1.00e+000 1.00e+000h  1
  13 0.0000000e+000 1.54e-008 1.38e+000 -12.3 3.65e-004    -  1.00e+000 1.00e+000h  1
  14 5.5511151e+003 4.85e-011 5.00e-005 -12.3 8.93e-004    -  1.00e+000 1.00e+000H  1
